500
1000
626
622
621
619
619
619
617
617
617
615
613
611
610
610
608
607
607
607
607
606
605
602
602
600
599
599
599
597
595
593
590
590
589
589
589
588
588
586
585
584
583
583
583
582
581
581
580
578
578
578
576
576
576
574
573
573
572
571
570
569
569
567
563
562
562
560
559
558
556
555
553
551
548
546
545
542
541
537
536
534
533
531
530
529
528
528
526
525
524
523
523
523
522
521
521
517
512
509
509
505
501
498
497
496
496
494
493
493
492
490
490
489
485
482
482
481
481
479
478
477
477
475
473
472
467
465
465
465
464
463
462
462
461
460
459
459
458
456
456
456
455
453
453
449
449
448
448
448
446
446
445
444
443
442
442
441
439
438
438
436
436
435
435
435
434
433
431
431
428
428
427
426
424
421
420
419
419
418
418
417
416
413
413
412
409
406
404
403
403
402
402
402
401
398
396
395
393
389
387
386
384
384
384
382
381
380
379
376
376
375
373
370
369
367
366
365
364
364
363
363
362
360
359
357
356
355
354
354
351
350
349
348
347
347
347
346
342
341
339
338
338
337
336
334
333
330
330
330
329
329
329
328
327
327
327
325
322
322
319
318
318
317
313
308
307
307
306
305
303
302
302
301
301
301
298
297
297
296
295
294
293
289
286
286
285
285
284
284
284
281
280
278
274
273
273
272
271
270
270
269
269
268
267
267
266
264
264
261
259
257
257
255
254
253
253
252
250
249
249
249
248
248
247
243
243
243
242
242
242
242
241
239
237
236
236
233
231
229
229
228
227
227
227
226
225
224
223
222
222
219
218
218
215
215
215
213
213
211
210
208
207
206
204
202
201
199
197
197
196
194
193
193
192
190
189
189
184
184
183
182
181
181
181
181
175
173
172
171
169
169
163
161
158
158
157
157
155
155
154
153
153
151
150
149
148
147
147
144
144
144
143
143
141
141
139
137
137
137
136
136
134
131
130
130
130
130
126
126
121
120
117
117
116
115
114
110
108
107
106
105
105
102
101
99
96
95
91
91
91
89
87
85
84
82
82
81
80
80
77
77
74
72
72
71
71
70
70
69
68
68
68
67
66
66
63
61
59
58
55
54
54
54
53
52
52
52
51
50
49
48
47
46
42
41
39
38
37
36
35
35
